p cnf 22 27
6 -4 -14 0
-8 3 -21 0
20 -16 0
-15 -19 22 -7 0
21 9 -15 20 0
20 17 9 5 0
-14 3 0
-18 -4 10 -14 -15 20 -16 -9 17 5 -19 11 -8 -6 21 2 3 22 -13 -12 0
8 -13 -14 20 0
16 10 0
-10 -13 0
-13 18 4 6 -17 22 -8 10 16 2 -7 -15 5 -1 -3 20 -21 14 9 0
-16 -19 15 2 5 -20 -10 0
-1 -13 -8 -21 -10 2 0
-13 -6 0
-2 3 18 16 0
4 2 -8 -7 -11 21 3 1 9 0
-17 5 0
22 -10 -8 0
-6 -17 -1 0
15 20 18 17 0
11 -19 8 -17 0
17 -14 0
-18 15 -7 -6 -1 20 -8 -5 -9 17 4 -21 -16 19 -2 -14 0
-20 17 11 0
18 21 -6 -7 0
2 -5 -6 12 0
